(set-logic ALL)
(declare-const lines String)
(declare-const parameters String)
(assert (< 0 (str.len lines)))
(assert (not (str.contains (str.at lines 0) "Parameters (kappa)")))
(assert (not (str.contains (str.at lines 0) "kappa under")))
(assert (< 1 (str.len lines)))
(assert (not (str.contains (str.at lines 1) "Parameters (kappa)")))
(assert (not (str.contains (str.at lines 1) "kappa under")))
(assert (< 2 (str.len lines)))
(assert (not (str.contains (str.at lines 2) "Parameters (kappa)")))
(assert (not (str.contains (str.at lines 2) "kappa under")))
(assert (< 3 (str.len lines)))
(assert (not (str.contains (str.at lines 3) "Parameters (kappa)")))
(assert (not (str.contains (str.at lines 3) "kappa under")))
(assert (< 4 (str.len lines)))
(assert (not (str.contains (str.at lines 4) "Parameters (kappa)")))
(assert (not (str.contains (str.at lines 4) "kappa under")))
(assert (< 5 (str.len lines)))
(assert (not (str.contains (str.at lines 5) "Parameters (kappa)")))
(assert (not (str.contains (str.at lines 5) "kappa under")))
(assert (< 6 (str.len lines)))
(assert (not (str.contains (str.at lines 6) "Parameters (kappa)")))
(assert (not (str.contains (str.at lines 6) "kappa under")))
(assert (< 7 (str.len lines)))
(assert (not (str.contains (str.at lines 7) "Parameters (kappa)")))
(assert (not (str.contains (str.at lines 7) "kappa under")))
(assert (< 8 (str.len lines)))
(assert (not (str.contains (str.at lines 8) "Parameters (kappa)")))
(assert (not (str.contains (str.at lines 8) "kappa under")))
(assert (< 9 (str.len lines)))
(assert (not (str.contains (str.at lines 9) "Parameters (kappa)")))
(assert (not (str.contains (str.at lines 9) "kappa under")))
(assert (< 10 (str.len lines)))
(assert (not (str.contains (str.at lines 10) "Parameters (kappa)")))
(assert (not (str.contains (str.at lines 10) "kappa under")))
(assert (< 11 (str.len lines)))
(assert (not (str.contains (str.at lines 11) "Parameters (kappa)")))
(assert (not (str.contains (str.at lines 11) "kappa under")))
(assert (< 12 (str.len lines)))
(assert (not (str.contains (str.at lines 12) "Parameters (kappa)")))
(assert (not (str.contains (str.at lines 12) "kappa under")))
(assert (< 13 (str.len lines)))
(assert (not (str.contains (str.at lines 13) "Parameters (kappa)")))
(assert (not (str.contains (str.at lines 13) "kappa under")))
(assert (< 14 (str.len lines)))
(assert (not (str.contains (str.at lines 14) "Parameters (kappa)")))
(assert (not (str.contains (str.at lines 14) "kappa under")))
(assert (< 15 (str.len lines)))
(assert (not (str.contains (str.at lines 15) "Parameters (kappa)")))
(assert (not (str.contains (str.at lines 15) "kappa under")))
(assert (< 16 (str.len lines)))
(assert (not (str.contains (str.at lines 16) "Parameters (kappa)")))
(assert (not (str.contains (str.at lines 16) "kappa under")))
(assert (< 17 (str.len lines)))
(assert (not (str.contains (str.at lines 17) "Parameters (kappa)")))
(assert (not (str.contains (str.at lines 17) "kappa under")))
(assert (< 18 (str.len lines)))
(assert (not (str.contains (str.at lines 18) "Parameters (kappa)")))
(assert (not (str.contains (str.at lines 18) "kappa under")))
(assert (< 19 (str.len lines)))
(assert (not (str.contains (str.at lines 19) "Parameters (kappa)")))
(assert (not (str.contains (str.at lines 19) "kappa under")))
(assert (< 20 (str.len lines)))
(assert (not (str.contains (str.at lines 20) "Parameters (kappa)")))
(assert (not (str.contains (str.at lines 20) "kappa under")))
(assert (< 21 (str.len lines)))
(assert (not (str.contains (str.at lines 21) "Parameters (kappa)")))
(assert (not (str.contains (str.at lines 21) "kappa under")))
(assert (< 22 (str.len lines)))
(assert (not (str.contains (str.at lines 22) "Parameters (kappa)")))
(assert (not (str.contains (str.at lines 22) "kappa under")))
(assert (< 23 (str.len lines)))
(assert (not (str.contains (str.at lines 23) "Parameters (kappa)")))
(assert (not (str.contains (str.at lines 23) "kappa under")))
(assert (< 24 (str.len lines)))
(assert (not (str.contains (str.at lines 24) "Parameters (kappa)")))
(assert (not (str.contains (str.at lines 24) "kappa under")))
(assert (< 25 (str.len lines)))
(assert (not (str.contains (str.at lines 25) "Parameters (kappa)")))
(assert (not (str.contains (str.at lines 25) "kappa under")))
(assert (< 26 (str.len lines)))
(assert (not (str.contains (str.at lines 26) "Parameters (kappa)")))
(assert (not (str.contains (str.at lines 26) "kappa under")))
(assert (< 27 (str.len lines)))
(assert (not (str.contains (str.at lines 27) "Parameters (kappa)")))
(assert (not (str.contains (str.at lines 27) "kappa under")))
(assert (< 28 (str.len lines)))
(assert (not (str.contains (str.at lines 28) "Parameters (kappa)")))
(assert (not (str.contains (str.at lines 28) "kappa under")))
(assert (< 29 (str.len lines)))
(assert (not (str.contains (str.at lines 29) "Parameters (kappa)")))
(assert (not (str.contains (str.at lines 29) "kappa under")))
(assert (< 30 (str.len lines)))
(assert (not (str.contains (str.at lines 30) "Parameters (kappa)")))
(assert (not (str.contains (str.at lines 30) "kappa under")))
(assert (< 31 (str.len lines)))
(assert (not (str.contains (str.at lines 31) "Parameters (kappa)")))
(assert (not (str.contains (str.at lines 31) "kappa under")))
(assert (< 32 (str.len lines)))
(assert (not (str.contains (str.at lines 32) "Parameters (kappa)")))
(assert (not (str.contains (str.at lines 32) "kappa under")))
(assert (< 33 (str.len lines)))
(assert (not (str.contains (str.at lines 33) "Parameters (kappa)")))
(assert (not (str.contains (str.at lines 33) "kappa under")))
(assert (< 34 (str.len lines)))
(assert (not (str.contains (str.at lines 34) "Parameters (kappa)")))
(assert (not (str.contains (str.at lines 34) "kappa under")))
(assert (< 35 (str.len lines)))
(assert (not (str.contains (str.at lines 35) "Parameters (kappa)")))
(assert (not (str.contains (str.at lines 35) "kappa under")))
(assert (< 36 (str.len lines)))
(assert (not (str.contains (str.at lines 36) "Parameters (kappa)")))
(assert (not (str.contains (str.at lines 36) "kappa under")))
(assert (< 37 (str.len lines)))
(assert (not (str.contains (str.at lines 37) "Parameters (kappa)")))
(assert (not (str.contains (str.at lines 37) "kappa under")))
(assert (< 38 (str.len lines)))
(assert (not (str.contains (str.at lines 38) "Parameters (kappa)")))
(assert (not (str.contains (str.at lines 38) "kappa under")))
(assert (< 39 (str.len lines)))
(assert (not (str.contains (str.at lines 39) "Parameters (kappa)")))
(assert (not (str.contains (str.at lines 39) "kappa under")))
(assert (< 40 (str.len lines)))
(assert (not (str.contains (str.at lines 40) "Parameters (kappa)")))
(assert (not (str.contains (str.at lines 40) "kappa under")))
(assert (< 41 (str.len lines)))
(assert (not (str.contains (str.at lines 41) "Parameters (kappa)")))
(assert (not (str.contains (str.at lines 41) "kappa under")))
(assert (< 42 (str.len lines)))
(assert (not (str.contains (str.at lines 42) "Parameters (kappa)")))
(assert (not (str.contains (str.at lines 42) "kappa under")))
(assert (< 43 (str.len lines)))
(assert (not (str.contains (str.at lines 43) "Parameters (kappa)")))
(assert (not (str.contains (str.at lines 43) "kappa under")))
(assert (< 44 (str.len lines)))
(assert (not (str.contains (str.at lines 44) "Parameters (kappa)")))
(assert (not (str.contains (str.at lines 44) "kappa under")))
(assert (< 45 (str.len lines)))
(assert (not (str.contains (str.at lines 45) "Parameters (kappa)")))
(assert (not (str.contains (str.at lines 45) "kappa under")))
(assert (< 46 (str.len lines)))
(assert (not (str.contains (str.at lines 46) "Parameters (kappa)")))
(assert (not (str.contains (str.at lines 46) "kappa under")))
(assert (< 47 (str.len lines)))
(assert (not (str.contains (str.at lines 47) "Parameters (kappa)")))
(assert (not (str.contains (str.at lines 47) "kappa under")))
(assert (< 48 (str.len lines)))
(assert (not (str.contains (str.at lines 48) "Parameters (kappa)")))
(assert (not (str.contains (str.at lines 48) "kappa under")))
(assert (< 49 (str.len lines)))
(assert (not (str.contains (str.at lines 49) "Parameters (kappa)")))
(assert (not (str.contains (str.at lines 49) "kappa under")))
(assert (< 50 (str.len lines)))
(assert (not (str.contains (str.at lines 50) "Parameters (kappa)")))
(assert (not (str.contains (str.at lines 50) "kappa under")))
(assert (< 51 (str.len lines)))
(assert (not (str.contains (str.at lines 51) "Parameters (kappa)")))
(assert (not (str.contains (str.at lines 51) "kappa under")))
(assert (< 52 (str.len lines)))
(assert (not (str.contains (str.at lines 52) "Parameters (kappa)")))
(assert (not (str.contains (str.at lines 52) "kappa under")))
(assert (< 53 (str.len lines)))
(assert (not (str.contains (str.at lines 53) "Parameters (kappa)")))
(assert (not (str.contains (str.at lines 53) "kappa under")))
(assert (< 54 (str.len lines)))
(assert (not (str.contains (str.at lines 54) "Parameters (kappa)")))
(assert (not (str.contains (str.at lines 54) "kappa under")))
(assert (< 55 (str.len lines)))
(assert (not (str.contains (str.at lines 55) "Parameters (kappa)")))
(assert (not (str.contains (str.at lines 55) "kappa under")))
(assert (< 56 (str.len lines)))
(assert (not (str.contains (str.at lines 56) "Parameters (kappa)")))
(assert (not (str.contains (str.at lines 56) "kappa under")))
(assert (< 57 (str.len lines)))
(assert (not (str.contains (str.at lines 57) "Parameters (kappa)")))
(assert (not (str.contains (str.at lines 57) "kappa under")))
(assert (< 58 (str.len lines)))
(assert (not (str.contains (str.at lines 58) "Parameters (kappa)")))
(assert (not (str.contains (str.at lines 58) "kappa under")))
(assert (< 59 (str.len lines)))
(assert (not (str.contains (str.at lines 59) "Parameters (kappa)")))
(assert (not (str.contains (str.at lines 59) "kappa under")))
(assert (< 60 (str.len lines)))
(assert (not (str.contains (str.at lines 60) "Parameters (kappa)")))
(assert (not (str.contains (str.at lines 60) "kappa under")))
(assert (< 61 (str.len lines)))
(assert (not (str.contains (str.at lines 61) "Parameters (kappa)")))
(assert (not (str.contains (str.at lines 61) "kappa under")))
(assert (< 62 (str.len lines)))
(assert (not (str.contains (str.at lines 62) "Parameters (kappa)")))
(assert (not (str.contains (str.at lines 62) "kappa under")))
(assert (< 63 (str.len lines)))
(assert (not (str.contains (str.at lines 63) "Parameters (kappa)")))
(assert (not (str.contains (str.at lines 63) "kappa under")))
(assert (< 64 (str.len lines)))
(assert (not (str.contains (str.at lines 64) "Parameters (kappa)")))
(assert (not (str.contains (str.at lines 64) "kappa under")))
(assert (< 65 (str.len lines)))
(assert (not (str.contains (str.at lines 65) "Parameters (kappa)")))
(assert (not (str.contains (str.at lines 65) "kappa under")))
(assert (< 66 (str.len lines)))
(assert (not (str.contains (str.at lines 66) "Parameters (kappa)")))
(assert (not (str.contains (str.at lines 66) "kappa under")))
(assert (< 67 (str.len lines)))
(assert (not (str.contains (str.at lines 67) "Parameters (kappa)")))
(assert (not (str.contains (str.at lines 67) "kappa under")))
(assert (< 68 (str.len lines)))
(assert (not (str.contains (str.at lines 68) "Parameters (kappa)")))
(assert (not (str.contains (str.at lines 68) "kappa under")))
(assert (< 69 (str.len lines)))
(assert (not (str.contains (str.at lines 69) "Parameters (kappa)")))
(assert (not (str.contains (str.at lines 69) "kappa under")))
(assert (< 70 (str.len lines)))
(assert (not (str.contains (str.at lines 70) "Parameters (kappa)")))
(assert (not (str.contains (str.at lines 70) "kappa under")))
(assert (< 71 (str.len lines)))
(assert (not (str.contains (str.at lines 71) "Parameters (kappa)")))
(assert (not (str.contains (str.at lines 71) "kappa under")))
(assert (< 72 (str.len lines)))
(assert (not (str.contains (str.at lines 72) "Parameters (kappa)")))
(assert (not (str.contains (str.at lines 72) "kappa under")))
(assert (< 73 (str.len lines)))
(assert (not (str.contains (str.at lines 73) "Parameters (kappa)")))
(assert (not (str.contains (str.at lines 73) "kappa under")))
(assert (< 74 (str.len lines)))
(assert (not (str.contains (str.at lines 74) "Parameters (kappa)")))
(assert (not (str.contains (str.at lines 74) "kappa under")))
(assert (< 75 (str.len lines)))
(assert (not (str.contains (str.at lines 75) "Parameters (kappa)")))
(assert (not (str.contains (str.at lines 75) "kappa under")))
(assert (< 76 (str.len lines)))
(assert (not (str.contains (str.at lines 76) "Parameters (kappa)")))
(assert (not (str.contains (str.at lines 76) "kappa under")))
(assert (< 77 (str.len lines)))
(assert (not (str.contains (str.at lines 77) "Parameters (kappa)")))
(assert (not (str.contains (str.at lines 77) "kappa under")))
(assert (< 78 (str.len lines)))
(assert (not (str.contains (str.at lines 78) "Parameters (kappa)")))
(assert (not (str.contains (str.at lines 78) "kappa under")))
(assert (< 79 (str.len lines)))
(assert (not (str.contains (str.at lines 79) "Parameters (kappa)")))
(assert (not (str.contains (str.at lines 79) "kappa under")))
(assert (< 80 (str.len lines)))
(assert (not (str.contains (str.at lines 80) "Parameters (kappa)")))
(assert (not (str.contains (str.at lines 80) "kappa under")))
(assert (< 81 (str.len lines)))
(assert (not (str.contains (str.at lines 81) "Parameters (kappa)")))
(assert (not (str.contains (str.at lines 81) "kappa under")))
(assert (< 82 (str.len lines)))
(assert (not (str.contains (str.at lines 82) "Parameters (kappa)")))
(assert (not (str.contains (str.at lines 82) "kappa under")))
(assert (< 83 (str.len lines)))
(assert (not (str.contains (str.at lines 83) "Parameters (kappa)")))
(assert (not (str.contains (str.at lines 83) "kappa under")))
(assert (< 84 (str.len lines)))
(assert (not (str.contains (str.at lines 84) "Parameters (kappa)")))
(assert (not (str.contains (str.at lines 84) "kappa under")))
(assert (< 85 (str.len lines)))
(assert (not (str.contains (str.at lines 85) "Parameters (kappa)")))
(assert (not (str.contains (str.at lines 85) "kappa under")))
(assert (< 86 (str.len lines)))
(assert (not (str.contains (str.at lines 86) "Parameters (kappa)")))
(assert (not (str.contains (str.at lines 86) "kappa under")))
(assert (< 87 (str.len lines)))
(assert (not (str.contains (str.at lines 87) "Parameters (kappa)")))
(assert (not (str.contains (str.at lines 87) "kappa under")))
(assert (< 88 (str.len lines)))
(assert (not (str.contains (str.at lines 88) "Parameters (kappa)")))
(assert (not (str.contains (str.at lines 88) "kappa under")))
(assert (< 89 (str.len lines)))
(assert (not (str.contains (str.at lines 89) "Parameters (kappa)")))
(assert (not (str.contains (str.at lines 89) "kappa under")))
(assert (< 90 (str.len lines)))
(assert (not (str.contains (str.at lines 90) "Parameters (kappa)")))
(assert (not (str.contains (str.at lines 90) "kappa under")))
(assert (< 91 (str.len lines)))
(assert (not (str.contains (str.at lines 91) "Parameters (kappa)")))
(assert (not (str.contains (str.at lines 91) "kappa under")))
(assert (< 92 (str.len lines)))
(assert (not (str.contains (str.at lines 92) "Parameters (kappa)")))
(assert (not (str.contains (str.at lines 92) "kappa under")))
(assert (< 93 (str.len lines)))
(assert (not (str.contains (str.at lines 93) "Parameters (kappa)")))
(assert (not (str.contains (str.at lines 93) "kappa under")))
(assert (< 94 (str.len lines)))
(assert (not (str.contains (str.at lines 94) "Parameters (kappa)")))
(assert (not (str.contains (str.at lines 94) "kappa under")))
(assert (< 95 (str.len lines)))
(assert (not (str.contains (str.at lines 95) "Parameters (kappa)")))
(assert (not (str.contains (str.at lines 95) "kappa under")))
(assert (< 96 (str.len lines)))
(assert (not (str.contains (str.at lines 96) "Parameters (kappa)")))
(assert (not (str.contains (str.at lines 96) "kappa under")))
(assert (< 97 (str.len lines)))
(assert (not (str.contains (str.at lines 97) "Parameters (kappa)")))
(assert (not (str.contains (str.at lines 97) "kappa under")))
(assert (< 98 (str.len lines)))
(assert (not (str.contains (str.at lines 98) "Parameters (kappa)")))
(assert (not (str.contains (str.at lines 98) "kappa under")))
(assert (< 99 (str.len lines)))
(assert (not (str.contains (str.at lines 99) "Parameters (kappa)")))
(assert (not (str.contains (str.at lines 99) "kappa under")))
(assert (< 100 (str.len lines)))
(assert (not (str.contains (str.at lines 100) "Parameters (kappa)")))
(assert (not (str.contains (str.at lines 100) "kappa under")))
(assert (< 101 (str.len lines)))
(assert (not (str.contains (str.at lines 101) "Parameters (kappa)")))
(assert (not (str.contains (str.at lines 101) "kappa under")))
(assert (< 102 (str.len lines)))
(assert (not (str.contains (str.at lines 102) "Parameters (kappa)")))
(assert (not (str.contains (str.at lines 102) "kappa under")))
(assert (< 103 (str.len lines)))
(assert (not (str.contains (str.at lines 103) "Parameters (kappa)")))
(assert (not (str.contains (str.at lines 103) "kappa under")))
(assert (< 104 (str.len lines)))
(assert (not (str.contains (str.at lines 104) "Parameters (kappa)")))
(assert (not (str.contains (str.at lines 104) "kappa under")))
(assert (< 105 (str.len lines)))
(assert (not (str.contains (str.at lines 105) "Parameters (kappa)")))
(assert (not (str.contains (str.at lines 105) "kappa under")))
(assert (< 106 (str.len lines)))
(assert (not (str.contains (str.at lines 106) "Parameters (kappa)")))
(assert (not (str.contains (str.at lines 106) "kappa under")))
(assert (< 107 (str.len lines)))
(assert (not (str.contains (str.at lines 107) "Parameters (kappa)")))
(assert (not (str.contains (str.at lines 107) "kappa under")))
(assert (< 108 (str.len lines)))
(assert (not (str.contains (str.at lines 108) "Parameters (kappa)")))
(assert (not (str.contains (str.at lines 108) "kappa under")))
(assert (< 109 (str.len lines)))
(assert (not (str.contains (str.at lines 109) "Parameters (kappa)")))
(assert (not (str.contains (str.at lines 109) "kappa under")))
(assert (< 110 (str.len lines)))
(assert (not (str.contains (str.at lines 110) "Parameters (kappa)")))
(assert (not (str.contains (str.at lines 110) "kappa under")))
(assert (< 111 (str.len lines)))
(assert (not (str.contains (str.at lines 111) "Parameters (kappa)")))
(assert (not (str.contains (str.at lines 111) "kappa under")))
(assert (< 112 (str.len lines)))
(assert (not (str.contains (str.at lines 112) "Parameters (kappa)")))
(assert (not (str.contains (str.at lines 112) "kappa under")))
(assert (< 113 (str.len lines)))
(assert (not (str.contains (str.at lines 113) "Parameters (kappa)")))
(assert (not (str.contains (str.at lines 113) "kappa under")))
(assert (< 114 (str.len lines)))
(assert (not (str.contains (str.at lines 114) "Parameters (kappa)")))
(assert (not (str.contains (str.at lines 114) "kappa under")))
(assert (< 115 (str.len lines)))
(assert (not (str.contains (str.at lines 115) "Parameters (kappa)")))
(assert (not (str.contains (str.at lines 115) "kappa under")))
(assert (< 116 (str.len lines)))
(assert (not (str.contains (str.at lines 116) "Parameters (kappa)")))
(assert (not (str.contains (str.at lines 116) "kappa under")))
(assert (< 117 (str.len lines)))
(assert (not (str.contains (str.at lines 117) "Parameters (kappa)")))
(assert (not (str.contains (str.at lines 117) "kappa under")))
(assert (< 118 (str.len lines)))
(assert (not (str.contains (str.at lines 118) "Parameters (kappa)")))
(assert (not (str.contains (str.at lines 118) "kappa under")))
(assert (< 119 (str.len lines)))
(assert (not (str.contains (str.at lines 119) "Parameters (kappa)")))
(assert (not (str.contains (str.at lines 119) "kappa under")))
(assert (< 120 (str.len lines)))
(assert (not (str.contains (str.at lines 120) "Parameters (kappa)")))
(assert (not (str.contains (str.at lines 120) "kappa under")))
(assert (< 121 (str.len lines)))
(assert (not (str.contains (str.at lines 121) "Parameters (kappa)")))
(assert (not (str.contains (str.at lines 121) "kappa under")))
(assert (< 122 (str.len lines)))
(assert (not (str.contains (str.at lines 122) "Parameters (kappa)")))
(assert (not (str.contains (str.at lines 122) "kappa under")))
(assert (< 123 (str.len lines)))
(assert (not (str.contains (str.at lines 123) "Parameters (kappa)")))
(assert (not (str.contains (str.at lines 123) "kappa under")))
(assert (< 124 (str.len lines)))
(assert (not (str.contains (str.at lines 124) "Parameters (kappa)")))
(assert (not (str.contains (str.at lines 124) "kappa under")))
(assert (< 125 (str.len lines)))
(assert (not (str.contains (str.at lines 125) "Parameters (kappa)")))
(assert (not (str.contains (str.at lines 125) "kappa under")))
(assert (< 126 (str.len lines)))
(assert (not (str.contains (str.at lines 126) "Parameters (kappa)")))
(assert (not (str.contains (str.at lines 126) "kappa under")))
(assert (< 127 (str.len lines)))
(assert (not (str.contains (str.at lines 127) "Parameters (kappa)")))
(assert (not (str.contains (str.at lines 127) "kappa under")))
(assert (< 128 (str.len lines)))
(assert (not (str.contains (str.at lines 128) "Parameters (kappa)")))
(assert (not (str.contains (str.at lines 128) "kappa under")))
(assert (< 129 (str.len lines)))
(assert (not (str.contains (str.at lines 129) "Parameters (kappa)")))
(assert (not (str.contains (str.at lines 129) "kappa under")))
(assert (< 130 (str.len lines)))
(assert (not (str.contains (str.at lines 130) "Parameters (kappa)")))
(assert (not (str.contains (str.at lines 130) "kappa under")))
(assert (< 131 (str.len lines)))
(assert (not (str.contains (str.at lines 131) "Parameters (kappa)")))
(assert (not (str.contains (str.at lines 131) "kappa under")))
(assert (< 132 (str.len lines)))
(assert (not (str.contains (str.at lines 132) "Parameters (kappa)")))
(assert (not (str.contains (str.at lines 132) "kappa under")))
(assert (< 133 (str.len lines)))
(assert (not (str.contains (str.at lines 133) "Parameters (kappa)")))
(assert (not (str.contains (str.at lines 133) "kappa under")))
(assert (< 134 (str.len lines)))
(assert (not (str.contains (str.at lines 134) "Parameters (kappa)")))
(assert (not (str.contains (str.at lines 134) "kappa under")))
(assert (< 135 (str.len lines)))
(assert (not (str.contains (str.at lines 135) "Parameters (kappa)")))
(assert (not (str.contains (str.at lines 135) "kappa under")))
(assert (< 136 (str.len lines)))
(assert (not (str.contains (str.at lines 136) "Parameters (kappa)")))
(assert (not (str.contains (str.at lines 136) "kappa under")))
(assert (< 137 (str.len lines)))
(assert (not (str.contains (str.at lines 137) "Parameters (kappa)")))
(assert (not (str.contains (str.at lines 137) "kappa under")))
(assert (< 138 (str.len lines)))
(assert (not (str.contains (str.at lines 138) "Parameters (kappa)")))
(assert (not (str.contains (str.at lines 138) "kappa under")))
(assert (< 139 (str.len lines)))
(assert (not (str.contains (str.at lines 139) "Parameters (kappa)")))
(assert (not (str.contains (str.at lines 139) "kappa under")))
(assert (< 140 (str.len lines)))
(assert (not (str.contains (str.at lines 140) "Parameters (kappa)")))
(assert (not (str.contains (str.at lines 140) "kappa under")))
(assert (< 141 (str.len lines)))
(assert (not (str.contains (str.at lines 141) "Parameters (kappa)")))
(assert (not (str.contains (str.at lines 141) "kappa under")))
(assert (< 142 (str.len lines)))
(assert (not (str.contains (str.at lines 142) "Parameters (kappa)")))
(assert (not (str.contains (str.at lines 142) "kappa under")))
(assert (< 143 (str.len lines)))
(assert (not (str.contains (str.at lines 143) "Parameters (kappa)")))
(assert (not (str.contains (str.at lines 143) "kappa under")))
(assert (< 144 (str.len lines)))
(assert (not (str.contains (str.at lines 144) "Parameters (kappa)")))
(assert (not (str.contains (str.at lines 144) "kappa under")))
(assert (< 145 (str.len lines)))
(assert (not (str.contains (str.at lines 145) "Parameters (kappa)")))
(assert (not (str.contains (str.at lines 145) "kappa under")))
(assert (< 146 (str.len lines)))
(assert (not (str.contains (str.at lines 146) "Parameters (kappa)")))
(assert (not (str.contains (str.at lines 146) "kappa under")))
(assert (< 147 (str.len lines)))
(assert (not (str.contains (str.at lines 147) "Parameters (kappa)")))
(assert (not (str.contains (str.at lines 147) "kappa under")))
(assert (< 148 (str.len lines)))
(assert (not (str.contains (str.at lines 148) "Parameters (kappa)")))
(assert (not (str.contains (str.at lines 148) "kappa under")))
(assert (< 149 (str.len lines)))
(assert (not (str.contains (str.at lines 149) "Parameters (kappa)")))
(assert (not (str.contains (str.at lines 149) "kappa under")))
(assert (< 150 (str.len lines)))
(assert (not (str.contains (str.at lines 150) "Parameters (kappa)")))
(assert (not (str.contains (str.at lines 150) "kappa under")))
(assert (< 151 (str.len lines)))
(assert (not (str.contains (str.at lines 151) "Parameters (kappa)")))
(assert (not (str.contains (str.at lines 151) "kappa under")))
(assert (< 152 (str.len lines)))
(assert (not (str.contains (str.at lines 152) "Parameters (kappa)")))
(assert (not (str.contains (str.at lines 152) "kappa under")))
(assert (< 153 (str.len lines)))
(assert (not (str.contains (str.at lines 153) "Parameters (kappa)")))
(assert (not (str.contains (str.at lines 153) "kappa under")))
(assert (< 154 (str.len lines)))
(assert (not (str.contains (str.at lines 154) "Parameters (kappa)")))
(assert (not (str.contains (str.at lines 154) "kappa under")))
(assert (< 155 (str.len lines)))
(assert (not (str.contains (str.at lines 155) "Parameters (kappa)")))
(assert (not (str.contains (str.at lines 155) "kappa under")))
(assert (< 156 (str.len lines)))
(assert (not (str.contains (str.at lines 156) "Parameters (kappa)")))
(assert (not (str.contains (str.at lines 156) "kappa under")))
(assert (< 157 (str.len lines)))
(assert (not (str.contains (str.at lines 157) "Parameters (kappa)")))
(assert (not (str.contains (str.at lines 157) "kappa under")))
(assert (< 158 (str.len lines)))
(assert (not (str.contains (str.at lines 158) "Parameters (kappa)")))
(assert (not (str.contains (str.at lines 158) "kappa under")))
(assert (< 159 (str.len lines)))
(assert (not (str.contains (str.at lines 159) "Parameters (kappa)")))
(assert (not (str.contains (str.at lines 159) "kappa under")))
(assert (< 160 (str.len lines)))
(assert (not (str.contains (str.at lines 160) "Parameters (kappa)")))
(assert (not (str.contains (str.at lines 160) "kappa under")))
(assert (< 161 (str.len lines)))
(assert (not (str.contains (str.at lines 161) "Parameters (kappa)")))
(assert (not (str.contains (str.at lines 161) "kappa under")))
(assert (< 162 (str.len lines)))
(assert (not (str.contains (str.at lines 162) "Parameters (kappa)")))
(assert (not (str.contains (str.at lines 162) "kappa under")))
(assert (< 163 (str.len lines)))
(assert (not (str.contains (str.at lines 163) "Parameters (kappa)")))
(assert (not (str.contains (str.at lines 163) "kappa under")))
(assert (< 164 (str.len lines)))
(assert (not (str.contains (str.at lines 164) "Parameters (kappa)")))
(assert (not (str.contains (str.at lines 164) "kappa under")))
(assert (< 165 (str.len lines)))
(assert (not (str.contains (str.at lines 165) "Parameters (kappa)")))
(assert (not (str.contains (str.at lines 165) "kappa under")))
(assert (< 166 (str.len lines)))
(assert (not (str.contains (str.at lines 166) "Parameters (kappa)")))
(assert (not (str.contains (str.at lines 166) "kappa under")))
(assert (< 167 (str.len lines)))
(assert (not (str.contains (str.at lines 167) "Parameters (kappa)")))
(assert (not (str.contains (str.at lines 167) "kappa under")))
(assert (< 168 (str.len lines)))
(assert (not (str.contains (str.at lines 168) "Parameters (kappa)")))
(assert (not (str.contains (str.at lines 168) "kappa under")))
(assert (< 169 (str.len lines)))
(assert (not (str.contains (str.at lines 169) "Parameters (kappa)")))
(assert (not (str.contains (str.at lines 169) "kappa under")))
(assert (< 170 (str.len lines)))
(assert (not (str.contains (str.at lines 170) "Parameters (kappa)")))
(assert (not (str.contains (str.at lines 170) "kappa under")))
(assert (< 171 (str.len lines)))
(assert (not (str.contains (str.at lines 171) "Parameters (kappa)")))
(assert (not (str.contains (str.at lines 171) "kappa under")))
(assert (< 172 (str.len lines)))
(assert (not (str.contains (str.at lines 172) "Parameters (kappa)")))
(assert (not (str.contains (str.at lines 172) "kappa under")))
(assert (< 173 (str.len lines)))
(assert (not (str.contains (str.at lines 173) "Parameters (kappa)")))
(assert (not (str.contains (str.at lines 173) "kappa under")))
(assert (< 174 (str.len lines)))
(assert (not (str.contains (str.at lines 174) "Parameters (kappa)")))
(assert (not (str.contains (str.at lines 174) "kappa under")))
(assert (< 175 (str.len lines)))
(assert (not (str.contains (str.at lines 175) "Parameters (kappa)")))
(assert (not (str.contains (str.at lines 175) "kappa under")))
(assert (< 176 (str.len lines)))
(assert (not (str.contains (str.at lines 176) "Parameters (kappa)")))
(assert (str.contains (str.at lines 176) "kappa under"))
(check-sat)
(get-value (lines))
(get-value (parameters))
